c nombre: 46
c densidad: 0.5
p edges 45 466
e 1 2
e 1 3
e 1 5
e 1 8
e 1 9
e 1 11
e 1 12
e 1 13
e 1 14
e 1 15
e 1 16
e 1 17
e 1 21
e 1 22
e 1 23
e 1 24
e 1 26
e 1 29
e 1 30
e 1 31
e 1 32
e 1 38
e 1 39
e 1 41
e 1 42
e 1 43
e 1 44
e 2 3
e 2 4
e 2 5
e 2 6
e 2 9
e 2 10
e 2 11
e 2 12
e 2 14
e 2 15
e 2 18
e 2 19
e 2 23
e 2 24
e 2 25
e 2 28
e 2 30
e 2 31
e 2 32
e 2 35
e 2 38
e 2 41
e 2 44
e 2 45
e 3 10
e 3 12
e 3 17
e 3 22
e 3 23
e 3 24
e 3 25
e 3 29
e 3 30
e 3 32
e 3 33
e 3 39
e 3 41
e 3 44
e 4 7
e 4 8
e 4 11
e 4 13
e 4 14
e 4 15
e 4 16
e 4 19
e 4 27
e 4 28
e 4 29
e 4 30
e 4 31
e 4 32
e 4 37
e 4 38
e 4 40
e 4 42
e 4 44
e 5 7
e 5 8
e 5 11
e 5 12
e 5 13
e 5 14
e 5 17
e 5 18
e 5 19
e 5 20
e 5 21
e 5 23
e 5 24
e 5 25
e 5 26
e 5 29
e 5 32
e 5 35
e 5 36
e 5 38
e 5 40
e 5 42
e 5 44
e 6 13
e 6 14
e 6 15
e 6 16
e 6 18
e 6 19
e 6 20
e 6 21
e 6 23
e 6 28
e 6 29
e 6 30
e 6 34
e 6 35
e 6 40
e 6 44
e 6 45
e 7 8
e 7 9
e 7 11
e 7 16
e 7 17
e 7 18
e 7 21
e 7 23
e 7 24
e 7 30
e 7 33
e 7 35
e 7 36
e 7 38
e 7 39
e 7 40
e 7 45
e 8 9
e 8 11
e 8 14
e 8 15
e 8 17
e 8 19
e 8 20
e 8 21
e 8 22
e 8 23
e 8 24
e 8 29
e 8 30
e 8 31
e 8 32
e 8 35
e 8 36
e 8 37
e 8 38
e 8 41
e 8 42
e 8 43
e 8 45
e 9 11
e 9 13
e 9 14
e 9 15
e 9 16
e 9 18
e 9 20
e 9 21
e 9 23
e 9 24
e 9 26
e 9 27
e 9 31
e 9 32
e 9 35
e 9 39
e 9 40
e 9 41
e 9 45
e 10 14
e 10 16
e 10 17
e 10 18
e 10 19
e 10 20
e 10 21
e 10 23
e 10 27
e 10 31
e 10 32
e 10 33
e 10 36
e 10 37
e 10 39
e 10 45
e 11 14
e 11 15
e 11 17
e 11 18
e 11 21
e 11 22
e 11 24
e 11 25
e 11 26
e 11 27
e 11 28
e 11 30
e 11 31
e 11 35
e 11 37
e 11 38
e 11 40
e 11 44
e 12 14
e 12 15
e 12 16
e 12 21
e 12 22
e 12 25
e 12 26
e 12 27
e 12 31
e 12 32
e 12 33
e 12 35
e 12 36
e 12 37
e 12 42
e 12 44
e 13 16
e 13 17
e 13 19
e 13 22
e 13 23
e 13 24
e 13 28
e 13 29
e 13 31
e 13 33
e 13 34
e 13 37
e 13 39
e 13 42
e 13 44
e 14 17
e 14 18
e 14 21
e 14 22
e 14 24
e 14 29
e 14 33
e 14 34
e 14 35
e 14 37
e 14 39
e 14 42
e 15 22
e 15 26
e 15 27
e 15 29
e 15 30
e 15 31
e 15 34
e 15 35
e 15 38
e 15 42
e 15 43
e 15 45
e 16 18
e 16 21
e 16 22
e 16 23
e 16 24
e 16 25
e 16 29
e 16 30
e 16 32
e 17 18
e 17 19
e 17 21
e 17 24
e 17 25
e 17 26
e 17 28
e 17 32
e 17 33
e 17 35
e 17 37
e 17 38
e 17 41
e 17 42
e 17 45
e 18 19
e 18 22
e 18 23
e 18 26
e 18 27
e 18 28
e 18 29
e 18 30
e 18 31
e 18 33
e 18 38
e 18 41
e 18 42
e 18 43
e 18 44
e 19 25
e 19 27
e 19 30
e 19 32
e 19 34
e 19 39
e 19 42
e 19 44
e 20 21
e 20 23
e 20 24
e 20 25
e 20 27
e 20 31
e 20 33
e 20 35
e 20 38
e 20 39
e 21 22
e 21 23
e 21 24
e 21 25
e 21 31
e 21 34
e 21 35
e 21 37
e 21 41
e 21 43
e 21 44
e 21 45
e 22 23
e 22 25
e 22 30
e 22 31
e 22 34
e 22 36
e 22 40
e 22 41
e 22 44
e 22 45
e 23 30
e 23 32
e 23 35
e 23 40
e 23 42
e 23 43
e 23 44
e 24 27
e 24 28
e 24 29
e 24 31
e 24 32
e 24 33
e 24 35
e 24 36
e 24 39
e 24 42
e 24 45
e 25 26
e 25 27
e 25 28
e 25 30
e 25 32
e 25 43
e 26 27
e 26 29
e 26 30
e 26 34
e 26 35
e 26 36
e 26 37
e 26 41
e 26 42
e 26 43
e 27 28
e 27 29
e 27 33
e 27 34
e 27 35
e 27 36
e 27 37
e 27 38
e 27 41
e 27 42
e 27 44
e 28 30
e 28 31
e 28 34
e 28 36
e 28 38
e 28 39
e 28 40
e 28 43
e 28 45
e 29 33
e 29 34
e 29 35
e 29 37
e 29 40
e 29 41
e 29 43
e 29 45
e 30 37
e 30 39
e 30 40
e 30 44
e 31 33
e 31 35
e 31 36
e 31 39
e 31 40
e 31 42
e 32 35
e 32 37
e 32 39
e 32 40
e 32 41
e 32 43
e 33 35
e 33 42
e 33 43
e 33 45
e 34 35
e 34 38
e 34 39
e 34 40
e 34 44
e 34 45
e 35 36
e 35 38
e 35 41
e 35 42
e 35 43
e 35 44
e 36 38
e 36 39
e 36 42
e 36 44
e 36 45
e 37 44
e 38 41
e 38 43
e 38 45
e 39 41
e 39 44
e 40 41
e 40 42
e 40 43
e 41 42
e 41 43
e 41 44
e 41 45
e 42 44
e 43 44
e 44 45
